50 10609

119
230
180
257
61
199
18
78
398
78
344
324
491
148
13
487
392
194
343
352
43
440
346
189
98
180
498
442
53
280
455
368
482
358
223
402
318
269
64
431
39
479
254
255
306
403
301
269
162
149
